(set-logic QF_S)
(declare-fun _var_0xINPUT_128810_() String)
(declare-fun __woorpje_diseq_pref0_() String)
(declare-fun __woorpje_diseq_suf_l0_() String)
(declare-fun __woorpje_diseq_suf_r0_() String)
(assert (=(str.++ _var_0xINPUT_128810_  "")(str.++ __woorpje_diseq_pref0_  "k" __woorpje_diseq_suf_l0_  "")) )
(assert (=(str.++  "JU1ac1kFQa" "")(str.++ __woorpje_diseq_pref0_  "Q" __woorpje_diseq_suf_r0_  "")) )
(check-sat)
